set SOURCES := Amman Beirut Gaziantep;

set INTERNAL := Ar_Raqqa Hassakeh Dara Dayr_Az_Zor
Aleppo As_Suweida Damascus Hama Homs Idleb Jubb_al-Jarrah Qamishli;

set MARKETS := Aleppo As_Suweida Damascus Hama Homs Hassakeh Dara Dayr_Az_Zor;

set DEMANDPOINTS := Ar_Raqqa Hassakeh Dara Dayr_Az_Zor Idleb Jubb_al-Jarrah Qamishli;

set FOODS :=
Beans Bulgur Cheese Fish Meat Corn-soya_blend Dates Dried_skim_milk_enriched Milk Salt
Lentils maize_meal Chickpeas Rice Sorghum_millet Soya-fortified_bulgur_wheat
Soya-fortified_maize_meal Soya-fortified_sorghum_grits Soya-fortified_Wheat_flour Sugar
Oil Wheat Wheat_flour Wheat-soya_blend
;

set FOODS_MARKET :=
Bulgur Cheese Chickpeas Dates Fish Lentils Meat Milk
Oil Rice Salt Sugar Wheat_flour Beans
;

set NUTRIENTS :=
  Energy	Protein	Fat	Calcium	Iron	VitaminA	ThiamineB1	RiboflavinB2
  	NiacinB3	Folate	VitaminC	Iodine
;

param composition:
       Energy	Protein	Fat	Calcium	Iron	VitaminA	ThiamineB1	RiboflavinB2
  	NiacinB3	Folate	VitaminC	Iodine :=
Beans	335	20	1.2	143	8.2	0	0.5	0.22	2.1	180	0	0
Bulgur	350	11	1.5	23	7.8	0	0.3	0.1	5.5	38	0	0
Cheese	355	22.5	28	630	0.2	120	0.03	0.45	0.2	0	0	0
Fish	305	22	24	330	2.7	0	0.4	0.3	6.5	16	0	0
Meat	220	21	15	14	4.1	0	0.2	0.23	3.2	2	0	0
Corn-soya_blend	380	18	6	513	18.5	500	0.65	0.5	6.8	0	40	0
Dates	245	2	0.5	32	1.2	0	0.09	0.1	2.2	13	0	0
Dried_skim_milk_enriched	360	36	1	1257	1	1500	0.42	1.55	1	50	0	0
Milk	360	36	1	912	0.5	280	0.28	1.21	0.6	37	0	0
Salt	0	0	0	0	0	0	0	0	0	0	0	1000000
Lentils	340	20	0.6	51	9	0	0.5	0.25	2.6	0	0	0
maize_meal	360	9	3.5	10	2.5	0	0.3	0.1	1.8	0	0	0
Chickpeas	335	22	1.4	130	5.2	0	0.6	0.19	3	100	0	0
Rice	360	7	0.5	7	1.2	0	0.2	0.08	2.6	11	0	0
Sorghum_millet	335	11	3	26	4.5	0	0.34	0.15	3.3	0	0	0
Soya-fortified_bulgur_wheat	350	17	1.5	54	4.7	0	0.25	0.13	4.2	74	0	0
Soya-fortified_maize_meal	390	13	1.5	178	4.8	228	0.7	0.3	3.1	0	0	0
Soya-fortified_sorghum_grits	360	360	1	40	2	0	0.2	0.1	1.7	50	0	0
Soya-fortified_Wheat_flour	360	16	1.3	211	4.8	265	0.66	0.36	4.6	0	0	0
Sugar	400	0	0	0	0	0	0	0	0	0	0	0
Oil	885	0	100	0	0	0	0	0	0	0	0	0
Wheat	330	12.3	1.5	36	4	0	0.3	0.07	5	51	0	0
Wheat_flour	350	11.5	1.5	29	3.7	0	0.28	0.14	4.5	0	0	0
Wheat-soya_blend	370	20	6	750	20.8	498	1.5	0.6	9.1	0	40	0
;

param popsize :=
Ar_Raqqa        10000
Hassakeh        10000
Dara            20000
Dayr_Az_Zor     25000
Idleb            5000
Jubb_al-Jarrah   2000
Qamishli         5000
;

param demand :=
  Energy 2100
  Protein 52.5
  Fat    89.25
  Calcium 1100
  Iron   22
  VitaminA 500
  ThiamineB1 0.9
  RiboflavinB2  1.4
  NiacinB3  12
  Folate  160
  VitaminC  28
  Iodine   150
;
  
param: EDGES: transpcost :=
Aleppo	Ar_Raqqa	420
Aleppo	Idleb	131.4
Amman	As_Suweida	294
Amman	Dara	198.6
Ar_Raqqa	Aleppo	420
Ar_Raqqa	Dayr_Az_Zor	282
Ar_Raqqa	Hassakeh	376
As_Suweida	Damascus	218
As_Suweida	Dara	102.6
As_Suweida	Dayr_Az_Zor	1100
Beirut	Damascus	226
Beirut	Homs	372
Damascus	Dara	222
Damascus	Homs	332
Damascus	As_Suweida	218
Dara	As_Suweida	102.6
Dara	Damascus	222
Dayr_Az_Zor	Ar_Raqqa	282
Dayr_Az_Zor	As_Suweida	1100
Dayr_Az_Zor	Jubb_al-Jarrah	634
Gaziantep	Aleppo	242
Hama	Homs	92
Hama	Idleb	210
Hama	Jubb_al-Jarrah	153.8
Hassakeh	Ar_Raqqa	376
Hassakeh	Qamishli	163
Homs	Damascus	326
Homs	Hama	92
Homs	Jubb_al-Jarrah	130.2
Idleb	Aleppo	131.4
Idleb	Hama	210
Jubb_al-Jarrah	Dayr_Az_Zor	634
Jubb_al-Jarrah	Hama	153.8
Jubb_al-Jarrah	Homs	153.8
Qamishli	Hassakeh	163
;

param purchasecost :=
Beans	800
Bulgur	450
Cheese	15000
Fish	900
Meat	1200
Corn-soya_blend	800
Dates	500
Dried_skim_milk_enriched	1600
Milk	1200
Salt	800
Lentils	500
maize_meal	300
Chickpeas	550
Rice	575
Sorghum_millet	320
Soya-fortified_bulgur_wheat	1100
Soya-fortified_maize_meal	900
Soya-fortified_sorghum_grits	1300
Soya-fortified_Wheat_flour	900
Sugar	1000
Oil	1400
Wheat	300
Wheat_flour	300
Wheat-soya_blend	850
;

param localcost :=
Aleppo 	Beans	1123
As_Suweida	Beans	1206
Damascus	Beans	1206
Dara	Beans	737
Dayr_Az_Zor	Beans	1360
Hama	Beans	1526
Hassakeh	Beans	1048
Homs	Beans	1737
Aleppo	Bulgur	536
As_Suweida	Bulgur	684
Damascus	Bulgur	611
Dara	Bulgur	605
Dayr_Az_Zor	Bulgur	649
Hama	Bulgur	614
Hassakeh	Bulgur	540
Homs	Bulgur	632
Aleppo	Cheese	2860
As_Suweida	Cheese	3071
Damascus	Cheese	2678
Dara	Cheese	2263
Dayr_Az_Zor	Cheese	2947
Hama	Cheese	2702
Hassakeh	Cheese	2421
Homs	Cheese	2526
Aleppo	Chickpeas	1139
As_Suweida	Chickpeas	1166
Damascus	Chickpeas	1429
Dara	Chickpeas	954
Dayr_Az_Zor	Chickpeas	1386
Hama	Chickpeas	1246
Hassakeh	Chickpeas	1004
Homs	Chickpeas	1263
Aleppo	Dates	1772
As_Suweida	Dates	2026
Damascus	Dates	1789
Dara	Dates	1784
Dayr_Az_Zor	Dates	1816
Hama	Dates	1895
Hassakeh	Dates	1316
Homs	Dates	1895
Aleppo	Fish	4097
As_Suweida	Fish	4597
Damascus	Fish	5352
Dara	Fish	4765
Dayr_Az_Zor	Fish	3789
Hama	Fish	5026
Hassakeh	Fish	4028
Homs	Fish	4836
Aleppo	Lentils	842
As_Suweida	Lentils	947
Damascus	Lentils	772
Dara	Lentils	749
Dayr_Az_Zor	Lentils	824
Hama	Lentils	842
Hassakeh	Lentils	627
Homs	Lentils	947
Aleppo	Meat	4251
As_Suweida	Meat	5101
Damascus	Meat	5006
Dara	Meat	4745
Dayr_Az_Zor	Meat	4443
Hama	Meat	6439
Hassakeh	Meat	4377
Homs	Meat	5158
Aleppo	Milk	496
As_Suweida	Milk	474
Damascus	Milk	526
Dara	Milk	434
Dayr_Az_Zor	Milk	579
Hama	Milk	509
Hassakeh	Milk	583
Homs	Milk	526
Aleppo	Oil	1165
As_Suweida	Oil	1313
Damascus	Oil	1165
Dara	Oil	1246
Dayr_Az_Zor	Oil	1276
Hama	Oil	1305
Hassakeh	Oil	974
Homs	Oil	1368
Aleppo	Rice	881
As_Suweida	Rice	716
Damascus	Rice	998
Dara	Rice	1083
Dayr_Az_Zor	Rice	1132
Hama	Rice	1102
Hassakeh	Rice	964
Homs	Rice	1158
Aleppo	Salt	278
As_Suweida	Salt	316
Damascus	Salt	241
Dara	Salt	316
Dayr_Az_Zor	Salt	219
Hama	Salt	316
Hassakeh	Salt	211
Homs	Salt	316
Aleppo	Sugar	552
As_Suweida	Sugar	552
Damascus	Sugar	528
Dara	Sugar	537
Dayr_Az_Zor	Sugar	728
Hama	Sugar	526
Hassakeh	Sugar	665
Homs	Sugar	526
Aleppo	Wheat_flour	488
As_Suweida	Wheat_flour	511
Damascus	Wheat_flour	536
Dara	Wheat_flour	526
Dayr_Az_Zor	Wheat_flour	535
Hama	Wheat_flour	632
Hassakeh	Wheat_flour	465
Homs	Wheat_flour	632
;

param capmarket :=
  Dara         Bulgur  2
  Dayr_Az_Zor  Bulgur  2
  Hassakeh     Bulgur  2
  Dara         Milk    2
  Dayr_Az_Zor  Milk    2
  Hassakeh     Milk    2
  Dara         Oil     2
  Dayr_Az_Zor  Oil     2
  Hassakeh     Oil     2
  Dara         Wheat_flour  2
  Dayr_Az_Zor  Wheat_flour  2
  Hassakeh     Wheat_flour  2
  ;

param costUB 28000;  #  the maximum amount the WFP has available to cover all costs of the program
param EnergyLB  1900;   #  lower bound on average desired calorie intake over the whole population
param localLB  60; #  lower bound on percentage of food purchased locally,
                    #     either wholesale or using vouchers
param voucherLB  10; #  lower bound on percentage of demand met through vouchers
